unsat
(:cnf-encoding-aux-vars 57
 :elim-unconstrained    3
 :max-memory            19.08
 :memory                18.65
 :nlsat-arith-var       10
 :nlsat-atoms           115
 :nlsat-bool-var        68
 :nlsat-clauses         316
 :nlsat-conflicts       42
 :nlsat-decisions       442
 :nlsat-propagations    445
 :num-allocs            242036
 :rlimit-count          43173
 :solve-eqs-elim-vars   49
 :solve-eqs-steps       149
 :time                  0.02
 :total-time            0.03)
